\ Model shortest_paths
\ LP format - for model browsing. Use MPS format to capture full model detail.
Minimize
  0.987 x[1_0,1^0,1] + 5.583315144248981 x[2_0,2^0,2] + 3.948 x[2_0,2^1,2]
   + 2.79165757212449 x[3_0,3^0,3] + 1.974 x[3_0,3^1,3]
   + 4.187486358186735 x[4_0,4^0,4] + 2.961 x[4_0,4^1,4]
   + 30.77161464726867 z[7_2,7^0] + 25.12491814912041 z[7_1,7^0]
   + 35.532 z[7_3,7^0] + 17.766 z[7_0,7^0] + 10.25720488242289 z[5_2,5^0]
   + 5.922 z[5_0,5^0] + 8.37497271637347 z[5_1,5^0]
   + 8.37497271637347 z[5_2,5^1] + 5.922 z[5_1,5^1] + 5.922 z[5_2,5^2]
   + 9.87 z[6_0,6^0] + 17.09534147070482 z[6_2,6^0]
   + 13.95828786062245 z[6_1,6^0] + 13.95828786062245 z[6_2,6^1]
   + 9.87 z[6_1,6^1] + 9.87 z[6_2,6^2]
Subject To
 UB-y[5^0,7_0,1]: x[5^0,7_0,1] - y[5^0,7_0,1] <= 0
 UB-y[5^0,7_0,2]: x[5^0,7_0,2] - y[5^0,7_0,2] <= 0
 UB-y[6^0,7_0,3]: x[6^0,7_0,3] - y[6^0,7_0,3] <= 0
 UB-y[6^0,7_0,4]: x[6^0,7_0,4] - y[6^0,7_0,4] <= 0
 UB-y[5^1,7_1,1]: x[5^1,7_1,1] - y[5^1,7_1,1] <= 0
 UB-y[5^1,7_1,2]: x[5^1,7_1,2] - y[5^1,7_1,2] <= 0
 UB-y[6^1,7_1,3]: x[6^1,7_1,3] - y[6^1,7_1,3] <= 0
 UB-y[6^1,7_1,4]: x[6^1,7_1,4] - y[6^1,7_1,4] <= 0
 UB-y[5^2,7_2,1]: x[5^2,7_2,1] - y[5^2,7_2,1] <= 0
 UB-y[5^2,7_2,2]: x[5^2,7_2,2] - y[5^2,7_2,2] <= 0
 UB-y[6^2,7_2,3]: x[6^2,7_2,3] - y[6^2,7_2,3] <= 0
 UB-y[6^2,7_2,4]: x[6^2,7_2,4] - y[6^2,7_2,4] <= 0
 UB-y[5^3,7_3,1]: x[5^3,7_3,1] - y[5^3,7_3,1] <= 0
 UB-y[5^3,7_3,2]: x[5^3,7_3,2] - y[5^3,7_3,2] <= 0
 UB-y[6^3,7_3,3]: x[6^3,7_3,3] - y[6^3,7_3,3] <= 0
 UB-y[6^3,7_3,4]: x[6^3,7_3,4] - y[6^3,7_3,4] <= 0
 UB-y[7_0,7^0,1]: x[7_0,7^0,1] - y[7_0,7^0,1] <= 0
 UB-y[7_0,7^0,2]: x[7_0,7^0,2] - y[7_0,7^0,2] <= 0
 UB-y[7_0,7^0,3]: x[7_0,7^0,3] - y[7_0,7^0,3] <= 0
 UB-y[7_0,7^0,4]: x[7_0,7^0,4] - y[7_0,7^0,4] <= 0
 UB-y[7_1,7^0,1]: x[7_1,7^0,1] - y[7_1,7^0,1] <= 0
 UB-y[7_1,7^0,2]: x[7_1,7^0,2] - y[7_1,7^0,2] <= 0
 UB-y[7_1,7^0,3]: x[7_1,7^0,3] - y[7_1,7^0,3] <= 0
 UB-y[7_1,7^0,4]: x[7_1,7^0,4] - y[7_1,7^0,4] <= 0
 UB-y[7_2,7^0,1]: x[7_2,7^0,1] - y[7_2,7^0,1] <= 0
 UB-y[7_2,7^0,2]: x[7_2,7^0,2] - y[7_2,7^0,2] <= 0
 UB-y[7_2,7^0,3]: x[7_2,7^0,3] - y[7_2,7^0,3] <= 0
 UB-y[7_2,7^0,4]: x[7_2,7^0,4] - y[7_2,7^0,4] <= 0
 UB-y[7_3,7^0,1]: x[7_3,7^0,1] - y[7_3,7^0,1] <= 0
 UB-y[7_3,7^0,2]: x[7_3,7^0,2] - y[7_3,7^0,2] <= 0
 UB-y[7_3,7^0,3]: x[7_3,7^0,3] - y[7_3,7^0,3] <= 0
 UB-y[7_3,7^0,4]: x[7_3,7^0,4] - y[7_3,7^0,4] <= 0
 UB-y[1^0,5_0,1]: x[1^0,5_0,1] - y[1^0,5_0,1] <= 0
 UB-y[2^0,5_0,2]: x[2^0,5_0,2] - y[2^0,5_0,2] <= 0
 UB-y[1^1,5_1,1]: x[1^1,5_1,1] - y[1^1,5_1,1] <= 0
 UB-y[2^1,5_1,2]: x[2^1,5_1,2] - y[2^1,5_1,2] <= 0
 UB-y[2^2,5_2,2]: x[2^2,5_2,2] - y[2^2,5_2,2] <= 0
 UB-y[5_0,5^0,1]: x[5_0,5^0,1] - y[5_0,5^0,1] <= 0
 UB-y[5_0,5^0,2]: x[5_0,5^0,2] - y[5_0,5^0,2] <= 0
 UB-y[5_1,5^0,1]: x[5_1,5^0,1] - y[5_1,5^0,1] <= 0
 UB-y[5_1,5^0,2]: x[5_1,5^0,2] - y[5_1,5^0,2] <= 0
 UB-y[5_2,5^0,1]: x[5_2,5^0,1] - y[5_2,5^0,1] <= 0
 UB-y[5_2,5^0,2]: x[5_2,5^0,2] - y[5_2,5^0,2] <= 0
 UB-y[5_0,5^1,1]: x[5_0,5^1,1] - y[5_0,5^1,1] <= 0
 UB-y[5_0,5^1,2]: x[5_0,5^1,2] - y[5_0,5^1,2] <= 0
 UB-y[5_1,5^1,1]: x[5_1,5^1,1] - y[5_1,5^1,1] <= 0
 UB-y[5_1,5^1,2]: x[5_1,5^1,2] - y[5_1,5^1,2] <= 0
 UB-y[5_2,5^1,1]: x[5_2,5^1,1] - y[5_2,5^1,1] <= 0
 UB-y[5_2,5^1,2]: x[5_2,5^1,2] - y[5_2,5^1,2] <= 0
 UB-y[5_1,5^2,1]: x[5_1,5^2,1] - y[5_1,5^2,1] <= 0
 UB-y[5_1,5^2,2]: x[5_1,5^2,2] - y[5_1,5^2,2] <= 0
 UB-y[5_2,5^2,1]: x[5_2,5^2,1] - y[5_2,5^2,1] <= 0
 UB-y[5_2,5^2,2]: x[5_2,5^2,2] - y[5_2,5^2,2] <= 0
 UB-y[5_2,5^3,1]: x[5_2,5^3,1] - y[5_2,5^3,1] <= 0
 UB-y[5_2,5^3,2]: x[5_2,5^3,2] - y[5_2,5^3,2] <= 0
 UB-y[3^0,6_0,3]: x[3^0,6_0,3] - y[3^0,6_0,3] <= 0
 UB-y[4^0,6_0,4]: x[4^0,6_0,4] - y[4^0,6_0,4] <= 0
 UB-y[3^1,6_1,3]: x[3^1,6_1,3] - y[3^1,6_1,3] <= 0
 UB-y[4^1,6_1,4]: x[4^1,6_1,4] - y[4^1,6_1,4] <= 0
 UB-y[3^2,6_2,3]: x[3^2,6_2,3] - y[3^2,6_2,3] <= 0
 UB-y[4^2,6_2,4]: x[4^2,6_2,4] - y[4^2,6_2,4] <= 0
 UB-y[6_0,6^0,3]: x[6_0,6^0,3] - y[6_0,6^0,3] <= 0
 UB-y[6_0,6^0,4]: x[6_0,6^0,4] - y[6_0,6^0,4] <= 0
 UB-y[6_1,6^0,3]: x[6_1,6^0,3] - y[6_1,6^0,3] <= 0
 UB-y[6_1,6^0,4]: x[6_1,6^0,4] - y[6_1,6^0,4] <= 0
 UB-y[6_2,6^0,3]: x[6_2,6^0,3] - y[6_2,6^0,3] <= 0
 UB-y[6_2,6^0,4]: x[6_2,6^0,4] - y[6_2,6^0,4] <= 0
 UB-y[6_0,6^1,3]: x[6_0,6^1,3] - y[6_0,6^1,3] <= 0
 UB-y[6_0,6^1,4]: x[6_0,6^1,4] - y[6_0,6^1,4] <= 0
 UB-y[6_1,6^1,3]: x[6_1,6^1,3] - y[6_1,6^1,3] <= 0
 UB-y[6_1,6^1,4]: x[6_1,6^1,4] - y[6_1,6^1,4] <= 0
 UB-y[6_2,6^1,3]: x[6_2,6^1,3] - y[6_2,6^1,3] <= 0
 UB-y[6_2,6^1,4]: x[6_2,6^1,4] - y[6_2,6^1,4] <= 0
 UB-y[6_1,6^2,3]: x[6_1,6^2,3] - y[6_1,6^2,3] <= 0
 UB-y[6_1,6^2,4]: x[6_1,6^2,4] - y[6_1,6^2,4] <= 0
 UB-y[6_2,6^2,3]: x[6_2,6^2,3] - y[6_2,6^2,3] <= 0
 UB-y[6_2,6^2,4]: x[6_2,6^2,4] - y[6_2,6^2,4] <= 0
 UB-y[6_2,6^3,3]: x[6_2,6^3,3] - y[6_2,6^3,3] <= 0
 UB-y[6_2,6^3,4]: x[6_2,6^3,4] - y[6_2,6^3,4] <= 0
 UB-z[1,('5^0',_'7_0',_1)]: y[5^0,7_0,1] - z[5^0,7_0] <= 0
 UB-z[1,('5^0',_'7_0',_2)]: y[5^0,7_0,2] - z[5^0,7_0] <= 0
 UB-z[1,('6^0',_'7_0',_3)]: y[6^0,7_0,3] - z[6^0,7_0] <= 0
 UB-z[1,('6^0',_'7_0',_4)]: y[6^0,7_0,4] - z[6^0,7_0] <= 0
 UB-z[1,('5^1',_'7_1',_1)]: y[5^1,7_1,1] - z[5^1,7_1] <= 0
 UB-z[1,('5^1',_'7_1',_2)]: y[5^1,7_1,2] - z[5^1,7_1] <= 0
 UB-z[1,('6^1',_'7_1',_3)]: y[6^1,7_1,3] - z[6^1,7_1] <= 0
 UB-z[1,('6^1',_'7_1',_4)]: y[6^1,7_1,4] - z[6^1,7_1] <= 0
 UB-z[1,('5^2',_'7_2',_1)]: y[5^2,7_2,1] - z[5^2,7_2] <= 0
 UB-z[1,('5^2',_'7_2',_2)]: y[5^2,7_2,2] - z[5^2,7_2] <= 0
 UB-z[1,('6^2',_'7_2',_3)]: y[6^2,7_2,3] - z[6^2,7_2] <= 0
 UB-z[1,('6^2',_'7_2',_4)]: y[6^2,7_2,4] - z[6^2,7_2] <= 0
 UB-z[1,('5^3',_'7_3',_1)]: y[5^3,7_3,1] - z[5^3,7_3] <= 0
 UB-z[1,('5^3',_'7_3',_2)]: y[5^3,7_3,2] - z[5^3,7_3] <= 0
 UB-z[1,('6^3',_'7_3',_3)]: y[6^3,7_3,3] - z[6^3,7_3] <= 0
 UB-z[1,('6^3',_'7_3',_4)]: y[6^3,7_3,4] - z[6^3,7_3] <= 0
 UB-z[1,('7_0',_'7^0',_1)]: y[7_0,7^0,1] - z[7_0,7^0] <= 0
 UB-z[1,('7_0',_'7^0',_2)]: y[7_0,7^0,2] - z[7_0,7^0] <= 0
 UB-z[1,('7_0',_'7^0',_3)]: y[7_0,7^0,3] - z[7_0,7^0] <= 0
 UB-z[1,('7_0',_'7^0',_4)]: y[7_0,7^0,4] - z[7_0,7^0] <= 0
 UB-z[1,('7_1',_'7^0',_1)]: y[7_1,7^0,1] - z[7_1,7^0] <= 0
 UB-z[1,('7_1',_'7^0',_2)]: y[7_1,7^0,2] - z[7_1,7^0] <= 0
 UB-z[1,('7_1',_'7^0',_3)]: y[7_1,7^0,3] - z[7_1,7^0] <= 0
 UB-z[1,('7_1',_'7^0',_4)]: y[7_1,7^0,4] - z[7_1,7^0] <= 0
 UB-z[1,('7_2',_'7^0',_1)]: y[7_2,7^0,1] - z[7_2,7^0] <= 0
 UB-z[1,('7_2',_'7^0',_2)]: y[7_2,7^0,2] - z[7_2,7^0] <= 0
 UB-z[1,('7_2',_'7^0',_3)]: y[7_2,7^0,3] - z[7_2,7^0] <= 0
 UB-z[1,('7_2',_'7^0',_4)]: y[7_2,7^0,4] - z[7_2,7^0] <= 0
 UB-z[1,('7_3',_'7^0',_1)]: y[7_3,7^0,1] - z[7_3,7^0] <= 0
 UB-z[1,('7_3',_'7^0',_2)]: y[7_3,7^0,2] - z[7_3,7^0] <= 0
 UB-z[1,('7_3',_'7^0',_3)]: y[7_3,7^0,3] - z[7_3,7^0] <= 0
 UB-z[1,('7_3',_'7^0',_4)]: y[7_3,7^0,4] - z[7_3,7^0] <= 0
 UB-z[1,('1^0',_'5_0',_1)]: y[1^0,5_0,1] - z[1^0,5_0] <= 0
 UB-z[1,('2^0',_'5_0',_2)]: y[2^0,5_0,2] - z[2^0,5_0] <= 0
 UB-z[1,('1^1',_'5_1',_1)]: y[1^1,5_1,1] - z[1^1,5_1] <= 0
 UB-z[1,('2^1',_'5_1',_2)]: y[2^1,5_1,2] - z[2^1,5_1] <= 0
 UB-z[1,('2^2',_'5_2',_2)]: y[2^2,5_2,2] - z[2^2,5_2] <= 0
 UB-z[1,('5_0',_'5^0',_1)]: y[5_0,5^0,1] - z[5_0,5^0] <= 0
 UB-z[1,('5_0',_'5^0',_2)]: y[5_0,5^0,2] - z[5_0,5^0] <= 0
 UB-z[1,('5_1',_'5^0',_1)]: y[5_1,5^0,1] - z[5_1,5^0] <= 0
 UB-z[1,('5_1',_'5^0',_2)]: y[5_1,5^0,2] - z[5_1,5^0] <= 0
 UB-z[1,('5_2',_'5^0',_1)]: y[5_2,5^0,1] - z[5_2,5^0] <= 0
 UB-z[1,('5_2',_'5^0',_2)]: y[5_2,5^0,2] - z[5_2,5^0] <= 0
 UB-z[1,('5_0',_'5^1',_1)]: y[5_0,5^1,1] - z[5_0,5^1] <= 0
 UB-z[1,('5_0',_'5^1',_2)]: y[5_0,5^1,2] - z[5_0,5^1] <= 0
 UB-z[1,('5_1',_'5^1',_1)]: y[5_1,5^1,1] - z[5_1,5^1] <= 0
 UB-z[1,('5_1',_'5^1',_2)]: y[5_1,5^1,2] - z[5_1,5^1] <= 0
 UB-z[1,('5_2',_'5^1',_1)]: y[5_2,5^1,1] - z[5_2,5^1] <= 0
 UB-z[1,('5_2',_'5^1',_2)]: y[5_2,5^1,2] - z[5_2,5^1] <= 0
 UB-z[1,('5_1',_'5^2',_1)]: y[5_1,5^2,1] - z[5_1,5^2] <= 0
 UB-z[1,('5_1',_'5^2',_2)]: y[5_1,5^2,2] - z[5_1,5^2] <= 0
 UB-z[1,('5_2',_'5^2',_1)]: y[5_2,5^2,1] - z[5_2,5^2] <= 0
 UB-z[1,('5_2',_'5^2',_2)]: y[5_2,5^2,2] - z[5_2,5^2] <= 0
 UB-z[1,('5_2',_'5^3',_1)]: y[5_2,5^3,1] - z[5_2,5^3] <= 0
 UB-z[1,('5_2',_'5^3',_2)]: y[5_2,5^3,2] - z[5_2,5^3] <= 0
 UB-z[1,('3^0',_'6_0',_3)]: y[3^0,6_0,3] - z[3^0,6_0] <= 0
 UB-z[1,('4^0',_'6_0',_4)]: y[4^0,6_0,4] - z[4^0,6_0] <= 0
 UB-z[1,('3^1',_'6_1',_3)]: y[3^1,6_1,3] - z[3^1,6_1] <= 0
 UB-z[1,('4^1',_'6_1',_4)]: y[4^1,6_1,4] - z[4^1,6_1] <= 0
 UB-z[1,('3^2',_'6_2',_3)]: y[3^2,6_2,3] - z[3^2,6_2] <= 0
 UB-z[1,('4^2',_'6_2',_4)]: y[4^2,6_2,4] - z[4^2,6_2] <= 0
 UB-z[1,('6_0',_'6^0',_3)]: y[6_0,6^0,3] - z[6_0,6^0] <= 0
 UB-z[1,('6_0',_'6^0',_4)]: y[6_0,6^0,4] - z[6_0,6^0] <= 0
 UB-z[1,('6_1',_'6^0',_3)]: y[6_1,6^0,3] - z[6_1,6^0] <= 0
 UB-z[1,('6_1',_'6^0',_4)]: y[6_1,6^0,4] - z[6_1,6^0] <= 0
 UB-z[1,('6_2',_'6^0',_3)]: y[6_2,6^0,3] - z[6_2,6^0] <= 0
 UB-z[1,('6_2',_'6^0',_4)]: y[6_2,6^0,4] - z[6_2,6^0] <= 0
 UB-z[1,('6_0',_'6^1',_3)]: y[6_0,6^1,3] - z[6_0,6^1] <= 0
 UB-z[1,('6_0',_'6^1',_4)]: y[6_0,6^1,4] - z[6_0,6^1] <= 0
 UB-z[1,('6_1',_'6^1',_3)]: y[6_1,6^1,3] - z[6_1,6^1] <= 0
 UB-z[1,('6_1',_'6^1',_4)]: y[6_1,6^1,4] - z[6_1,6^1] <= 0
 UB-z[1,('6_2',_'6^1',_3)]: y[6_2,6^1,3] - z[6_2,6^1] <= 0
 UB-z[1,('6_2',_'6^1',_4)]: y[6_2,6^1,4] - z[6_2,6^1] <= 0
 UB-z[1,('6_1',_'6^2',_3)]: y[6_1,6^2,3] - z[6_1,6^2] <= 0
 UB-z[1,('6_1',_'6^2',_4)]: y[6_1,6^2,4] - z[6_1,6^2] <= 0
 UB-z[1,('6_2',_'6^2',_3)]: y[6_2,6^2,3] - z[6_2,6^2] <= 0
 UB-z[1,('6_2',_'6^2',_4)]: y[6_2,6^2,4] - z[6_2,6^2] <= 0
 UB-z[1,('6_2',_'6^3',_3)]: y[6_2,6^3,3] - z[6_2,6^3] <= 0
 UB-z[1,('6_2',_'6^3',_4)]: y[6_2,6^3,4] - z[6_2,6^3] <= 0
 UB-z[2,('5^0',_'7_0',_1)]: y[5^0,7_0,1] - z[5^0,7_0] <= 0
 UB-z[2,('5^0',_'7_0',_2)]: y[5^0,7_0,2] - z[5^0,7_0] <= 0
 UB-z[2,('6^0',_'7_0',_3)]: y[6^0,7_0,3] - z[6^0,7_0] <= 0
 UB-z[2,('6^0',_'7_0',_4)]: y[6^0,7_0,4] - z[6^0,7_0] <= 0
 UB-z[2,('5^1',_'7_1',_1)]: y[5^1,7_1,1] - z[5^1,7_1] <= 0
 UB-z[2,('5^1',_'7_1',_2)]: y[5^1,7_1,2] - z[5^1,7_1] <= 0
 UB-z[2,('6^1',_'7_1',_3)]: y[6^1,7_1,3] - z[6^1,7_1] <= 0
 UB-z[2,('6^1',_'7_1',_4)]: y[6^1,7_1,4] - z[6^1,7_1] <= 0
 UB-z[2,('5^2',_'7_2',_1)]: y[5^2,7_2,1] - z[5^2,7_2] <= 0
 UB-z[2,('5^2',_'7_2',_2)]: y[5^2,7_2,2] - z[5^2,7_2] <= 0
 UB-z[2,('6^2',_'7_2',_3)]: y[6^2,7_2,3] - z[6^2,7_2] <= 0
 UB-z[2,('6^2',_'7_2',_4)]: y[6^2,7_2,4] - z[6^2,7_2] <= 0
 UB-z[2,('5^3',_'7_3',_1)]: y[5^3,7_3,1] - z[5^3,7_3] <= 0
 UB-z[2,('5^3',_'7_3',_2)]: y[5^3,7_3,2] - z[5^3,7_3] <= 0
 UB-z[2,('6^3',_'7_3',_3)]: y[6^3,7_3,3] - z[6^3,7_3] <= 0
 UB-z[2,('6^3',_'7_3',_4)]: y[6^3,7_3,4] - z[6^3,7_3] <= 0
 UB-z[2,('7_0',_'7^0',_1)]: y[7_0,7^0,1] - z[7_0,7^0] <= 0
 UB-z[2,('7_0',_'7^0',_2)]: y[7_0,7^0,2] - z[7_0,7^0] <= 0
 UB-z[2,('7_0',_'7^0',_3)]: y[7_0,7^0,3] - z[7_0,7^0] <= 0
 UB-z[2,('7_0',_'7^0',_4)]: y[7_0,7^0,4] - z[7_0,7^0] <= 0
 UB-z[2,('7_1',_'7^0',_1)]: y[7_1,7^0,1] - z[7_1,7^0] <= 0
 UB-z[2,('7_1',_'7^0',_2)]: y[7_1,7^0,2] - z[7_1,7^0] <= 0
 UB-z[2,('7_1',_'7^0',_3)]: y[7_1,7^0,3] - z[7_1,7^0] <= 0
 UB-z[2,('7_1',_'7^0',_4)]: y[7_1,7^0,4] - z[7_1,7^0] <= 0
 UB-z[2,('7_2',_'7^0',_1)]: y[7_2,7^0,1] - z[7_2,7^0] <= 0
 UB-z[2,('7_2',_'7^0',_2)]: y[7_2,7^0,2] - z[7_2,7^0] <= 0
 UB-z[2,('7_2',_'7^0',_3)]: y[7_2,7^0,3] - z[7_2,7^0] <= 0
 UB-z[2,('7_2',_'7^0',_4)]: y[7_2,7^0,4] - z[7_2,7^0] <= 0
 UB-z[2,('7_3',_'7^0',_1)]: y[7_3,7^0,1] - z[7_3,7^0] <= 0
 UB-z[2,('7_3',_'7^0',_2)]: y[7_3,7^0,2] - z[7_3,7^0] <= 0
 UB-z[2,('7_3',_'7^0',_3)]: y[7_3,7^0,3] - z[7_3,7^0] <= 0
 UB-z[2,('7_3',_'7^0',_4)]: y[7_3,7^0,4] - z[7_3,7^0] <= 0
 UB-z[2,('1^0',_'5_0',_1)]: y[1^0,5_0,1] - z[1^0,5_0] <= 0
 UB-z[2,('2^0',_'5_0',_2)]: y[2^0,5_0,2] - z[2^0,5_0] <= 0
 UB-z[2,('1^1',_'5_1',_1)]: y[1^1,5_1,1] - z[1^1,5_1] <= 0
 UB-z[2,('2^1',_'5_1',_2)]: y[2^1,5_1,2] - z[2^1,5_1] <= 0
 UB-z[2,('2^2',_'5_2',_2)]: y[2^2,5_2,2] - z[2^2,5_2] <= 0
 UB-z[2,('5_0',_'5^0',_1)]: y[5_0,5^0,1] - z[5_0,5^0] <= 0
 UB-z[2,('5_0',_'5^0',_2)]: y[5_0,5^0,2] - z[5_0,5^0] <= 0
 UB-z[2,('5_1',_'5^0',_1)]: y[5_1,5^0,1] - z[5_1,5^0] <= 0
 UB-z[2,('5_1',_'5^0',_2)]: y[5_1,5^0,2] - z[5_1,5^0] <= 0
 UB-z[2,('5_2',_'5^0',_1)]: y[5_2,5^0,1] - z[5_2,5^0] <= 0
 UB-z[2,('5_2',_'5^0',_2)]: y[5_2,5^0,2] - z[5_2,5^0] <= 0
 UB-z[2,('5_0',_'5^1',_1)]: y[5_0,5^1,1] - z[5_0,5^1] <= 0
 UB-z[2,('5_0',_'5^1',_2)]: y[5_0,5^1,2] - z[5_0,5^1] <= 0
 UB-z[2,('5_1',_'5^1',_1)]: y[5_1,5^1,1] - z[5_1,5^1] <= 0
 UB-z[2,('5_1',_'5^1',_2)]: y[5_1,5^1,2] - z[5_1,5^1] <= 0
 UB-z[2,('5_2',_'5^1',_1)]: y[5_2,5^1,1] - z[5_2,5^1] <= 0
 UB-z[2,('5_2',_'5^1',_2)]: y[5_2,5^1,2] - z[5_2,5^1] <= 0
 UB-z[2,('5_1',_'5^2',_1)]: y[5_1,5^2,1] - z[5_1,5^2] <= 0
 UB-z[2,('5_1',_'5^2',_2)]: y[5_1,5^2,2] - z[5_1,5^2] <= 0
 UB-z[2,('5_2',_'5^2',_1)]: y[5_2,5^2,1] - z[5_2,5^2] <= 0
 UB-z[2,('5_2',_'5^2',_2)]: y[5_2,5^2,2] - z[5_2,5^2] <= 0
 UB-z[2,('5_2',_'5^3',_1)]: y[5_2,5^3,1] - z[5_2,5^3] <= 0
 UB-z[2,('5_2',_'5^3',_2)]: y[5_2,5^3,2] - z[5_2,5^3] <= 0
 UB-z[2,('3^0',_'6_0',_3)]: y[3^0,6_0,3] - z[3^0,6_0] <= 0
 UB-z[2,('4^0',_'6_0',_4)]: y[4^0,6_0,4] - z[4^0,6_0] <= 0
 UB-z[2,('3^1',_'6_1',_3)]: y[3^1,6_1,3] - z[3^1,6_1] <= 0
 UB-z[2,('4^1',_'6_1',_4)]: y[4^1,6_1,4] - z[4^1,6_1] <= 0
 UB-z[2,('3^2',_'6_2',_3)]: y[3^2,6_2,3] - z[3^2,6_2] <= 0
 UB-z[2,('4^2',_'6_2',_4)]: y[4^2,6_2,4] - z[4^2,6_2] <= 0
 UB-z[2,('6_0',_'6^0',_3)]: y[6_0,6^0,3] - z[6_0,6^0] <= 0
 UB-z[2,('6_0',_'6^0',_4)]: y[6_0,6^0,4] - z[6_0,6^0] <= 0
 UB-z[2,('6_1',_'6^0',_3)]: y[6_1,6^0,3] - z[6_1,6^0] <= 0
 UB-z[2,('6_1',_'6^0',_4)]: y[6_1,6^0,4] - z[6_1,6^0] <= 0
 UB-z[2,('6_2',_'6^0',_3)]: y[6_2,6^0,3] - z[6_2,6^0] <= 0
 UB-z[2,('6_2',_'6^0',_4)]: y[6_2,6^0,4] - z[6_2,6^0] <= 0
 UB-z[2,('6_0',_'6^1',_3)]: y[6_0,6^1,3] - z[6_0,6^1] <= 0
 UB-z[2,('6_0',_'6^1',_4)]: y[6_0,6^1,4] - z[6_0,6^1] <= 0
 UB-z[2,('6_1',_'6^1',_3)]: y[6_1,6^1,3] - z[6_1,6^1] <= 0
 UB-z[2,('6_1',_'6^1',_4)]: y[6_1,6^1,4] - z[6_1,6^1] <= 0
 UB-z[2,('6_2',_'6^1',_3)]: y[6_2,6^1,3] - z[6_2,6^1] <= 0
 UB-z[2,('6_2',_'6^1',_4)]: y[6_2,6^1,4] - z[6_2,6^1] <= 0
 UB-z[2,('6_1',_'6^2',_3)]: y[6_1,6^2,3] - z[6_1,6^2] <= 0
 UB-z[2,('6_1',_'6^2',_4)]: y[6_1,6^2,4] - z[6_1,6^2] <= 0
 UB-z[2,('6_2',_'6^2',_3)]: y[6_2,6^2,3] - z[6_2,6^2] <= 0
 UB-z[2,('6_2',_'6^2',_4)]: y[6_2,6^2,4] - z[6_2,6^2] <= 0
 UB-z[2,('6_2',_'6^3',_3)]: y[6_2,6^3,3] - z[6_2,6^3] <= 0
 UB-z[2,('6_2',_'6^3',_4)]: y[6_2,6^3,4] - z[6_2,6^3] <= 0
 UB-z[3,('5^0',_'7_0',_1)]: y[5^0,7_0,1] - z[5^0,7_0] <= 0
 UB-z[3,('5^0',_'7_0',_2)]: y[5^0,7_0,2] - z[5^0,7_0] <= 0
 UB-z[3,('6^0',_'7_0',_3)]: y[6^0,7_0,3] - z[6^0,7_0] <= 0
 UB-z[3,('6^0',_'7_0',_4)]: y[6^0,7_0,4] - z[6^0,7_0] <= 0
 UB-z[3,('5^1',_'7_1',_1)]: y[5^1,7_1,1] - z[5^1,7_1] <= 0
 UB-z[3,('5^1',_'7_1',_2)]: y[5^1,7_1,2] - z[5^1,7_1] <= 0
 UB-z[3,('6^1',_'7_1',_3)]: y[6^1,7_1,3] - z[6^1,7_1] <= 0
 UB-z[3,('6^1',_'7_1',_4)]: y[6^1,7_1,4] - z[6^1,7_1] <= 0
 UB-z[3,('5^2',_'7_2',_1)]: y[5^2,7_2,1] - z[5^2,7_2] <= 0
 UB-z[3,('5^2',_'7_2',_2)]: y[5^2,7_2,2] - z[5^2,7_2] <= 0
 UB-z[3,('6^2',_'7_2',_3)]: y[6^2,7_2,3] - z[6^2,7_2] <= 0
 UB-z[3,('6^2',_'7_2',_4)]: y[6^2,7_2,4] - z[6^2,7_2] <= 0
 UB-z[3,('5^3',_'7_3',_1)]: y[5^3,7_3,1] - z[5^3,7_3] <= 0
 UB-z[3,('5^3',_'7_3',_2)]: y[5^3,7_3,2] - z[5^3,7_3] <= 0
 UB-z[3,('6^3',_'7_3',_3)]: y[6^3,7_3,3] - z[6^3,7_3] <= 0
 UB-z[3,('6^3',_'7_3',_4)]: y[6^3,7_3,4] - z[6^3,7_3] <= 0
 UB-z[3,('7_0',_'7^0',_1)]: y[7_0,7^0,1] - z[7_0,7^0] <= 0
 UB-z[3,('7_0',_'7^0',_2)]: y[7_0,7^0,2] - z[7_0,7^0] <= 0
 UB-z[3,('7_0',_'7^0',_3)]: y[7_0,7^0,3] - z[7_0,7^0] <= 0
 UB-z[3,('7_0',_'7^0',_4)]: y[7_0,7^0,4] - z[7_0,7^0] <= 0
 UB-z[3,('7_1',_'7^0',_1)]: y[7_1,7^0,1] - z[7_1,7^0] <= 0
 UB-z[3,('7_1',_'7^0',_2)]: y[7_1,7^0,2] - z[7_1,7^0] <= 0
 UB-z[3,('7_1',_'7^0',_3)]: y[7_1,7^0,3] - z[7_1,7^0] <= 0
 UB-z[3,('7_1',_'7^0',_4)]: y[7_1,7^0,4] - z[7_1,7^0] <= 0
 UB-z[3,('7_2',_'7^0',_1)]: y[7_2,7^0,1] - z[7_2,7^0] <= 0
 UB-z[3,('7_2',_'7^0',_2)]: y[7_2,7^0,2] - z[7_2,7^0] <= 0
 UB-z[3,('7_2',_'7^0',_3)]: y[7_2,7^0,3] - z[7_2,7^0] <= 0
 UB-z[3,('7_2',_'7^0',_4)]: y[7_2,7^0,4] - z[7_2,7^0] <= 0
 UB-z[3,('7_3',_'7^0',_1)]: y[7_3,7^0,1] - z[7_3,7^0] <= 0
 UB-z[3,('7_3',_'7^0',_2)]: y[7_3,7^0,2] - z[7_3,7^0] <= 0
 UB-z[3,('7_3',_'7^0',_3)]: y[7_3,7^0,3] - z[7_3,7^0] <= 0
 UB-z[3,('7_3',_'7^0',_4)]: y[7_3,7^0,4] - z[7_3,7^0] <= 0
 UB-z[3,('1^0',_'5_0',_1)]: y[1^0,5_0,1] - z[1^0,5_0] <= 0
 UB-z[3,('2^0',_'5_0',_2)]: y[2^0,5_0,2] - z[2^0,5_0] <= 0
 UB-z[3,('1^1',_'5_1',_1)]: y[1^1,5_1,1] - z[1^1,5_1] <= 0
 UB-z[3,('2^1',_'5_1',_2)]: y[2^1,5_1,2] - z[2^1,5_1] <= 0
 UB-z[3,('2^2',_'5_2',_2)]: y[2^2,5_2,2] - z[2^2,5_2] <= 0
 UB-z[3,('5_0',_'5^0',_1)]: y[5_0,5^0,1] - z[5_0,5^0] <= 0
 UB-z[3,('5_0',_'5^0',_2)]: y[5_0,5^0,2] - z[5_0,5^0] <= 0
 UB-z[3,('5_1',_'5^0',_1)]: y[5_1,5^0,1] - z[5_1,5^0] <= 0
 UB-z[3,('5_1',_'5^0',_2)]: y[5_1,5^0,2] - z[5_1,5^0] <= 0
 UB-z[3,('5_2',_'5^0',_1)]: y[5_2,5^0,1] - z[5_2,5^0] <= 0
 UB-z[3,('5_2',_'5^0',_2)]: y[5_2,5^0,2] - z[5_2,5^0] <= 0
 UB-z[3,('5_0',_'5^1',_1)]: y[5_0,5^1,1] - z[5_0,5^1] <= 0
 UB-z[3,('5_0',_'5^1',_2)]: y[5_0,5^1,2] - z[5_0,5^1] <= 0
 UB-z[3,('5_1',_'5^1',_1)]: y[5_1,5^1,1] - z[5_1,5^1] <= 0
 UB-z[3,('5_1',_'5^1',_2)]: y[5_1,5^1,2] - z[5_1,5^1] <= 0
 UB-z[3,('5_2',_'5^1',_1)]: y[5_2,5^1,1] - z[5_2,5^1] <= 0
 UB-z[3,('5_2',_'5^1',_2)]: y[5_2,5^1,2] - z[5_2,5^1] <= 0
 UB-z[3,('5_1',_'5^2',_1)]: y[5_1,5^2,1] - z[5_1,5^2] <= 0
 UB-z[3,('5_1',_'5^2',_2)]: y[5_1,5^2,2] - z[5_1,5^2] <= 0
 UB-z[3,('5_2',_'5^2',_1)]: y[5_2,5^2,1] - z[5_2,5^2] <= 0
 UB-z[3,('5_2',_'5^2',_2)]: y[5_2,5^2,2] - z[5_2,5^2] <= 0
 UB-z[3,('5_2',_'5^3',_1)]: y[5_2,5^3,1] - z[5_2,5^3] <= 0
 UB-z[3,('5_2',_'5^3',_2)]: y[5_2,5^3,2] - z[5_2,5^3] <= 0
 UB-z[3,('3^0',_'6_0',_3)]: y[3^0,6_0,3] - z[3^0,6_0] <= 0
 UB-z[3,('4^0',_'6_0',_4)]: y[4^0,6_0,4] - z[4^0,6_0] <= 0
 UB-z[3,('3^1',_'6_1',_3)]: y[3^1,6_1,3] - z[3^1,6_1] <= 0
 UB-z[3,('4^1',_'6_1',_4)]: y[4^1,6_1,4] - z[4^1,6_1] <= 0
 UB-z[3,('3^2',_'6_2',_3)]: y[3^2,6_2,3] - z[3^2,6_2] <= 0
 UB-z[3,('4^2',_'6_2',_4)]: y[4^2,6_2,4] - z[4^2,6_2] <= 0
 UB-z[3,('6_0',_'6^0',_3)]: y[6_0,6^0,3] - z[6_0,6^0] <= 0
 UB-z[3,('6_0',_'6^0',_4)]: y[6_0,6^0,4] - z[6_0,6^0] <= 0
 UB-z[3,('6_1',_'6^0',_3)]: y[6_1,6^0,3] - z[6_1,6^0] <= 0
 UB-z[3,('6_1',_'6^0',_4)]: y[6_1,6^0,4] - z[6_1,6^0] <= 0
 UB-z[3,('6_2',_'6^0',_3)]: y[6_2,6^0,3] - z[6_2,6^0] <= 0
 UB-z[3,('6_2',_'6^0',_4)]: y[6_2,6^0,4] - z[6_2,6^0] <= 0
 UB-z[3,('6_0',_'6^1',_3)]: y[6_0,6^1,3] - z[6_0,6^1] <= 0
 UB-z[3,('6_0',_'6^1',_4)]: y[6_0,6^1,4] - z[6_0,6^1] <= 0
 UB-z[3,('6_1',_'6^1',_3)]: y[6_1,6^1,3] - z[6_1,6^1] <= 0
 UB-z[3,('6_1',_'6^1',_4)]: y[6_1,6^1,4] - z[6_1,6^1] <= 0
 UB-z[3,('6_2',_'6^1',_3)]: y[6_2,6^1,3] - z[6_2,6^1] <= 0
 UB-z[3,('6_2',_'6^1',_4)]: y[6_2,6^1,4] - z[6_2,6^1] <= 0
 UB-z[3,('6_1',_'6^2',_3)]: y[6_1,6^2,3] - z[6_1,6^2] <= 0
 UB-z[3,('6_1',_'6^2',_4)]: y[6_1,6^2,4] - z[6_1,6^2] <= 0
 UB-z[3,('6_2',_'6^2',_3)]: y[6_2,6^2,3] - z[6_2,6^2] <= 0
 UB-z[3,('6_2',_'6^2',_4)]: y[6_2,6^2,4] - z[6_2,6^2] <= 0
 UB-z[3,('6_2',_'6^3',_3)]: y[6_2,6^3,3] - z[6_2,6^3] <= 0
 UB-z[3,('6_2',_'6^3',_4)]: y[6_2,6^3,4] - z[6_2,6^3] <= 0
 UB-z[4,('5^0',_'7_0',_1)]: y[5^0,7_0,1] - z[5^0,7_0] <= 0
 UB-z[4,('5^0',_'7_0',_2)]: y[5^0,7_0,2] - z[5^0,7_0] <= 0
 UB-z[4,('6^0',_'7_0',_3)]: y[6^0,7_0,3] - z[6^0,7_0] <= 0
 UB-z[4,('6^0',_'7_0',_4)]: y[6^0,7_0,4] - z[6^0,7_0] <= 0
 UB-z[4,('5^1',_'7_1',_1)]: y[5^1,7_1,1] - z[5^1,7_1] <= 0
 UB-z[4,('5^1',_'7_1',_2)]: y[5^1,7_1,2] - z[5^1,7_1] <= 0
 UB-z[4,('6^1',_'7_1',_3)]: y[6^1,7_1,3] - z[6^1,7_1] <= 0
 UB-z[4,('6^1',_'7_1',_4)]: y[6^1,7_1,4] - z[6^1,7_1] <= 0
 UB-z[4,('5^2',_'7_2',_1)]: y[5^2,7_2,1] - z[5^2,7_2] <= 0
 UB-z[4,('5^2',_'7_2',_2)]: y[5^2,7_2,2] - z[5^2,7_2] <= 0
 UB-z[4,('6^2',_'7_2',_3)]: y[6^2,7_2,3] - z[6^2,7_2] <= 0
 UB-z[4,('6^2',_'7_2',_4)]: y[6^2,7_2,4] - z[6^2,7_2] <= 0
 UB-z[4,('5^3',_'7_3',_1)]: y[5^3,7_3,1] - z[5^3,7_3] <= 0
 UB-z[4,('5^3',_'7_3',_2)]: y[5^3,7_3,2] - z[5^3,7_3] <= 0
 UB-z[4,('6^3',_'7_3',_3)]: y[6^3,7_3,3] - z[6^3,7_3] <= 0
 UB-z[4,('6^3',_'7_3',_4)]: y[6^3,7_3,4] - z[6^3,7_3] <= 0
 UB-z[4,('7_0',_'7^0',_1)]: y[7_0,7^0,1] - z[7_0,7^0] <= 0
 UB-z[4,('7_0',_'7^0',_2)]: y[7_0,7^0,2] - z[7_0,7^0] <= 0
 UB-z[4,('7_0',_'7^0',_3)]: y[7_0,7^0,3] - z[7_0,7^0] <= 0
 UB-z[4,('7_0',_'7^0',_4)]: y[7_0,7^0,4] - z[7_0,7^0] <= 0
 UB-z[4,('7_1',_'7^0',_1)]: y[7_1,7^0,1] - z[7_1,7^0] <= 0
 UB-z[4,('7_1',_'7^0',_2)]: y[7_1,7^0,2] - z[7_1,7^0] <= 0
 UB-z[4,('7_1',_'7^0',_3)]: y[7_1,7^0,3] - z[7_1,7^0] <= 0
 UB-z[4,('7_1',_'7^0',_4)]: y[7_1,7^0,4] - z[7_1,7^0] <= 0
 UB-z[4,('7_2',_'7^0',_1)]: y[7_2,7^0,1] - z[7_2,7^0] <= 0
 UB-z[4,('7_2',_'7^0',_2)]: y[7_2,7^0,2] - z[7_2,7^0] <= 0
 UB-z[4,('7_2',_'7^0',_3)]: y[7_2,7^0,3] - z[7_2,7^0] <= 0
 UB-z[4,('7_2',_'7^0',_4)]: y[7_2,7^0,4] - z[7_2,7^0] <= 0
 UB-z[4,('7_3',_'7^0',_1)]: y[7_3,7^0,1] - z[7_3,7^0] <= 0
 UB-z[4,('7_3',_'7^0',_2)]: y[7_3,7^0,2] - z[7_3,7^0] <= 0
 UB-z[4,('7_3',_'7^0',_3)]: y[7_3,7^0,3] - z[7_3,7^0] <= 0
 UB-z[4,('7_3',_'7^0',_4)]: y[7_3,7^0,4] - z[7_3,7^0] <= 0
 UB-z[4,('1^0',_'5_0',_1)]: y[1^0,5_0,1] - z[1^0,5_0] <= 0
 UB-z[4,('2^0',_'5_0',_2)]: y[2^0,5_0,2] - z[2^0,5_0] <= 0
 UB-z[4,('1^1',_'5_1',_1)]: y[1^1,5_1,1] - z[1^1,5_1] <= 0
 UB-z[4,('2^1',_'5_1',_2)]: y[2^1,5_1,2] - z[2^1,5_1] <= 0
 UB-z[4,('2^2',_'5_2',_2)]: y[2^2,5_2,2] - z[2^2,5_2] <= 0
 UB-z[4,('5_0',_'5^0',_1)]: y[5_0,5^0,1] - z[5_0,5^0] <= 0
 UB-z[4,('5_0',_'5^0',_2)]: y[5_0,5^0,2] - z[5_0,5^0] <= 0
 UB-z[4,('5_1',_'5^0',_1)]: y[5_1,5^0,1] - z[5_1,5^0] <= 0
 UB-z[4,('5_1',_'5^0',_2)]: y[5_1,5^0,2] - z[5_1,5^0] <= 0
 UB-z[4,('5_2',_'5^0',_1)]: y[5_2,5^0,1] - z[5_2,5^0] <= 0
 UB-z[4,('5_2',_'5^0',_2)]: y[5_2,5^0,2] - z[5_2,5^0] <= 0
 UB-z[4,('5_0',_'5^1',_1)]: y[5_0,5^1,1] - z[5_0,5^1] <= 0
 UB-z[4,('5_0',_'5^1',_2)]: y[5_0,5^1,2] - z[5_0,5^1] <= 0
 UB-z[4,('5_1',_'5^1',_1)]: y[5_1,5^1,1] - z[5_1,5^1] <= 0
 UB-z[4,('5_1',_'5^1',_2)]: y[5_1,5^1,2] - z[5_1,5^1] <= 0
 UB-z[4,('5_2',_'5^1',_1)]: y[5_2,5^1,1] - z[5_2,5^1] <= 0
 UB-z[4,('5_2',_'5^1',_2)]: y[5_2,5^1,2] - z[5_2,5^1] <= 0
 UB-z[4,('5_1',_'5^2',_1)]: y[5_1,5^2,1] - z[5_1,5^2] <= 0
 UB-z[4,('5_1',_'5^2',_2)]: y[5_1,5^2,2] - z[5_1,5^2] <= 0
 UB-z[4,('5_2',_'5^2',_1)]: y[5_2,5^2,1] - z[5_2,5^2] <= 0
 UB-z[4,('5_2',_'5^2',_2)]: y[5_2,5^2,2] - z[5_2,5^2] <= 0
 UB-z[4,('5_2',_'5^3',_1)]: y[5_2,5^3,1] - z[5_2,5^3] <= 0
 UB-z[4,('5_2',_'5^3',_2)]: y[5_2,5^3,2] - z[5_2,5^3] <= 0
 UB-z[4,('3^0',_'6_0',_3)]: y[3^0,6_0,3] - z[3^0,6_0] <= 0
 UB-z[4,('4^0',_'6_0',_4)]: y[4^0,6_0,4] - z[4^0,6_0] <= 0
 UB-z[4,('3^1',_'6_1',_3)]: y[3^1,6_1,3] - z[3^1,6_1] <= 0
 UB-z[4,('4^1',_'6_1',_4)]: y[4^1,6_1,4] - z[4^1,6_1] <= 0
 UB-z[4,('3^2',_'6_2',_3)]: y[3^2,6_2,3] - z[3^2,6_2] <= 0
 UB-z[4,('4^2',_'6_2',_4)]: y[4^2,6_2,4] - z[4^2,6_2] <= 0
 UB-z[4,('6_0',_'6^0',_3)]: y[6_0,6^0,3] - z[6_0,6^0] <= 0
 UB-z[4,('6_0',_'6^0',_4)]: y[6_0,6^0,4] - z[6_0,6^0] <= 0
 UB-z[4,('6_1',_'6^0',_3)]: y[6_1,6^0,3] - z[6_1,6^0] <= 0
 UB-z[4,('6_1',_'6^0',_4)]: y[6_1,6^0,4] - z[6_1,6^0] <= 0
 UB-z[4,('6_2',_'6^0',_3)]: y[6_2,6^0,3] - z[6_2,6^0] <= 0
 UB-z[4,('6_2',_'6^0',_4)]: y[6_2,6^0,4] - z[6_2,6^0] <= 0
 UB-z[4,('6_0',_'6^1',_3)]: y[6_0,6^1,3] - z[6_0,6^1] <= 0
 UB-z[4,('6_0',_'6^1',_4)]: y[6_0,6^1,4] - z[6_0,6^1] <= 0
 UB-z[4,('6_1',_'6^1',_3)]: y[6_1,6^1,3] - z[6_1,6^1] <= 0
 UB-z[4,('6_1',_'6^1',_4)]: y[6_1,6^1,4] - z[6_1,6^1] <= 0
 UB-z[4,('6_2',_'6^1',_3)]: y[6_2,6^1,3] - z[6_2,6^1] <= 0
 UB-z[4,('6_2',_'6^1',_4)]: y[6_2,6^1,4] - z[6_2,6^1] <= 0
 UB-z[4,('6_1',_'6^2',_3)]: y[6_1,6^2,3] - z[6_1,6^2] <= 0
 UB-z[4,('6_1',_'6^2',_4)]: y[6_1,6^2,4] - z[6_1,6^2] <= 0
 UB-z[4,('6_2',_'6^2',_3)]: y[6_2,6^2,3] - z[6_2,6^2] <= 0
 UB-z[4,('6_2',_'6^2',_4)]: y[6_2,6^2,4] - z[6_2,6^2] <= 0
 UB-z[4,('6_2',_'6^3',_3)]: y[6_2,6^3,3] - z[6_2,6^3] <= 0
 UB-z[4,('6_2',_'6^3',_4)]: y[6_2,6^3,4] - z[6_2,6^3] <= 0
 netflow[1-1]: = 0
 netflow[1-2]: = 0
 netflow[1_0]: x[1_0,1^0,1] + x[1_0,1^1,1] = 1
 netflow[1^0]: - x[1_0,1^0,1] + x[1^0,5_0,1] = 0
 netflow[1^1]: - x[1_0,1^1,1] + x[1^1,5_1,1] = 0
 netflow[2-1]: = 0
 netflow[2-2]: = 0
 netflow[2_0]: x[2_0,2^0,2] + x[2_0,2^1,2] + x[2_0,2^2,2] = 1
 netflow[2^0]: - x[2_0,2^0,2] + x[2^0,5_0,2] = 0
 netflow[2^1]: - x[2_0,2^1,2] + x[2^1,5_1,2] = 0
 netflow[2^2]: - x[2_0,2^2,2] + x[2^2,5_2,2] = 0
 netflow[3-1]: = 0
 netflow[3-2]: = 0
 netflow[3_0]: x[3_0,3^0,3] + x[3_0,3^1,3] + x[3_0,3^2,3] = 1
 netflow[3^0]: - x[3_0,3^0,3] + x[3^0,6_0,3] = 0
 netflow[3^1]: - x[3_0,3^1,3] + x[3^1,6_1,3] = 0
 netflow[3^2]: - x[3_0,3^2,3] + x[3^2,6_2,3] = 0
 netflow[4-1]: = 0
 netflow[4-2]: = 0
 netflow[4_0]: x[4_0,4^0,4] + x[4_0,4^1,4] + x[4_0,4^2,4] = 1
 netflow[4^0]: - x[4_0,4^0,4] + x[4^0,6_0,4] = 0
 netflow[4^1]: - x[4_0,4^1,4] + x[4^1,6_1,4] = 0
 netflow[4^2]: - x[4_0,4^2,4] + x[4^2,6_2,4] = 0
 netflow-multi[7_0,1]: x[7_0,7^0,1] - x[5^0,7_0,1] = 0
 netflow-multi[7_0,2]: x[7_0,7^0,2] - x[5^0,7_0,2] = 0
 netflow-multi[7_0,3]: x[7_0,7^0,3] - x[6^0,7_0,3] = 0
 netflow-multi[7_0,4]: x[7_0,7^0,4] - x[6^0,7_0,4] = 0
 netflow-multi[7_1,1]: x[7_1,7^0,1] - x[5^1,7_1,1] = 0
 netflow-multi[7_1,2]: x[7_1,7^0,2] - x[5^1,7_1,2] = 0
 netflow-multi[7_1,3]: x[7_1,7^0,3] - x[6^1,7_1,3] = 0
 netflow-multi[7_1,4]: x[7_1,7^0,4] - x[6^1,7_1,4] = 0
 netflow-multi[7_2,1]: x[7_2,7^0,1] - x[5^2,7_2,1] = 0
 netflow-multi[7_2,2]: x[7_2,7^0,2] - x[5^2,7_2,2] = 0
 netflow-multi[7_2,3]: x[7_2,7^0,3] - x[6^2,7_2,3] = 0
 netflow-multi[7_2,4]: x[7_2,7^0,4] - x[6^2,7_2,4] = 0
 netflow-multi[7_3,1]: x[7_3,7^0,1] - x[5^3,7_3,1] = 0
 netflow-multi[7_3,2]: x[7_3,7^0,2] - x[5^3,7_3,2] = 0
 netflow-multi[7_3,3]: x[7_3,7^0,3] - x[6^3,7_3,3] = 0
 netflow-multi[7_3,4]: x[7_3,7^0,4] - x[6^3,7_3,4] = 0
 netflow-multi[7^0,1]: - x[7_0,7^0,1] - x[7_1,7^0,1] - x[7_2,7^0,1]
   - x[7_3,7^0,1] = -1
 netflow-multi[7^0,2]: - x[7_0,7^0,2] - x[7_1,7^0,2] - x[7_2,7^0,2]
   - x[7_3,7^0,2] = -1
 netflow-multi[7^0,3]: - x[7_0,7^0,3] - x[7_1,7^0,3] - x[7_2,7^0,3]
   - x[7_3,7^0,3] = -1
 netflow-multi[7^0,4]: - x[7_0,7^0,4] - x[7_1,7^0,4] - x[7_2,7^0,4]
   - x[7_3,7^0,4] = -1
 netflow-multi[5_0,1]: x[5_0,5^0,1] + x[5_0,5^1,1] - x[1^0,5_0,1] = 0
 netflow-multi[5_0,2]: x[5_0,5^0,2] + x[5_0,5^1,2] - x[2^0,5_0,2] = 0
 netflow-multi[5_0,3]: = 0
 netflow-multi[5_0,4]: = 0
 netflow-multi[5_1,1]: x[5_1,5^0,1] + x[5_1,5^1,1] + x[5_1,5^2,1]
   - x[1^1,5_1,1] = 0
 netflow-multi[5_1,2]: x[5_1,5^0,2] + x[5_1,5^1,2] + x[5_1,5^2,2]
   - x[2^1,5_1,2] = 0
 netflow-multi[5_1,3]: = 0
 netflow-multi[5_1,4]: = 0
 netflow-multi[5_2,1]: x[5_2,5^0,1] + x[5_2,5^1,1] + x[5_2,5^2,1]
   + x[5_2,5^3,1] = 0
 netflow-multi[5_2,2]: x[5_2,5^0,2] + x[5_2,5^1,2] + x[5_2,5^2,2]
   + x[5_2,5^3,2] - x[2^2,5_2,2] = 0
 netflow-multi[5_2,3]: = 0
 netflow-multi[5_2,4]: = 0
 netflow-multi[5^0,1]: - x[5_0,5^0,1] - x[5_1,5^0,1] - x[5_2,5^0,1]
   + x[5^0,7_0,1] = 0
 netflow-multi[5^0,2]: - x[5_0,5^0,2] - x[5_1,5^0,2] - x[5_2,5^0,2]
   + x[5^0,7_0,2] = 0
 netflow-multi[5^0,3]: = 0
 netflow-multi[5^0,4]: = 0
 netflow-multi[5^1,1]: - x[5_0,5^1,1] - x[5_1,5^1,1] - x[5_2,5^1,1]
   + x[5^1,7_1,1] = 0
 netflow-multi[5^1,2]: - x[5_0,5^1,2] - x[5_1,5^1,2] - x[5_2,5^1,2]
   + x[5^1,7_1,2] = 0
 netflow-multi[5^1,3]: = 0
 netflow-multi[5^1,4]: = 0
 netflow-multi[5^2,1]: - x[5_1,5^2,1] - x[5_2,5^2,1] + x[5^2,7_2,1] = 0
 netflow-multi[5^2,2]: - x[5_1,5^2,2] - x[5_2,5^2,2] + x[5^2,7_2,2] = 0
 netflow-multi[5^2,3]: = 0
 netflow-multi[5^2,4]: = 0
 netflow-multi[5^3,1]: - x[5_2,5^3,1] + x[5^3,7_3,1] = 0
 netflow-multi[5^3,2]: - x[5_2,5^3,2] + x[5^3,7_3,2] = 0
 netflow-multi[5^3,3]: = 0
 netflow-multi[5^3,4]: = 0
 netflow-multi[6_0,1]: = 0
 netflow-multi[6_0,2]: = 0
 netflow-multi[6_0,3]: x[6_0,6^0,3] + x[6_0,6^1,3] - x[3^0,6_0,3] = 0
 netflow-multi[6_0,4]: x[6_0,6^0,4] + x[6_0,6^1,4] - x[4^0,6_0,4] = 0
 netflow-multi[6_1,1]: = 0
 netflow-multi[6_1,2]: = 0
 netflow-multi[6_1,3]: x[6_1,6^0,3] + x[6_1,6^1,3] + x[6_1,6^2,3]
   - x[3^1,6_1,3] = 0
 netflow-multi[6_1,4]: x[6_1,6^0,4] + x[6_1,6^1,4] + x[6_1,6^2,4]
   - x[4^1,6_1,4] = 0
 netflow-multi[6_2,1]: = 0
 netflow-multi[6_2,2]: = 0
 netflow-multi[6_2,3]: x[6_2,6^0,3] + x[6_2,6^1,3] + x[6_2,6^2,3]
   + x[6_2,6^3,3] - x[3^2,6_2,3] = 0
 netflow-multi[6_2,4]: x[6_2,6^0,4] + x[6_2,6^1,4] + x[6_2,6^2,4]
   + x[6_2,6^3,4] - x[4^2,6_2,4] = 0
 netflow-multi[6^0,1]: = 0
 netflow-multi[6^0,2]: = 0
 netflow-multi[6^0,3]: - x[6_0,6^0,3] - x[6_1,6^0,3] - x[6_2,6^0,3]
   + x[6^0,7_0,3] = 0
 netflow-multi[6^0,4]: - x[6_0,6^0,4] - x[6_1,6^0,4] - x[6_2,6^0,4]
   + x[6^0,7_0,4] = 0
 netflow-multi[6^1,1]: = 0
 netflow-multi[6^1,2]: = 0
 netflow-multi[6^1,3]: - x[6_0,6^1,3] - x[6_1,6^1,3] - x[6_2,6^1,3]
   + x[6^1,7_1,3] = 0
 netflow-multi[6^1,4]: - x[6_0,6^1,4] - x[6_1,6^1,4] - x[6_2,6^1,4]
   + x[6^1,7_1,4] = 0
 netflow-multi[6^2,1]: = 0
 netflow-multi[6^2,2]: = 0
 netflow-multi[6^2,3]: - x[6_1,6^2,3] - x[6_2,6^2,3] + x[6^2,7_2,3] = 0
 netflow-multi[6^2,4]: - x[6_1,6^2,4] - x[6_2,6^2,4] + x[6^2,7_2,4] = 0
 netflow-multi[6^3,1]: = 0
 netflow-multi[6^3,2]: = 0
 netflow-multi[6^3,3]: - x[6_2,6^3,3] + x[6^3,7_3,3] = 0
 netflow-multi[6^3,4]: - x[6_2,6^3,4] + x[6^3,7_3,4] = 0
Bounds
Binaries
 z[6^0,7_0] z[5^0,7_0] z[5^1,7_1] z[6^1,7_1] z[5^2,7_2] z[6^2,7_2]
 z[5^3,7_3] z[6^3,7_3] z[7_2,7^0] z[7_1,7^0] z[7_3,7^0] z[7_0,7^0]
 z[2^0,5_0] z[1^0,5_0] z[2^1,5_1] z[1^1,5_1] z[2^2,5_2] z[5_2,5^0]
 z[5_0,5^0] z[5_1,5^0] z[5_2,5^1] z[5_0,5^1] z[5_1,5^1] z[5_1,5^2]
 z[5_2,5^2] z[5_2,5^3] z[3^0,6_0] z[4^0,6_0] z[4^1,6_1] z[3^1,6_1]
 z[3^2,6_2] z[4^2,6_2] z[6_0,6^0] z[6_2,6^0] z[6_1,6^0] z[6_0,6^1]
 z[6_2,6^1] z[6_1,6^1] z[6_1,6^2] z[6_2,6^2] z[6_2,6^3]
End
